12 23
1 3 246
1 9 390
1 11 503
2 3 312
2 9 119
2 12 191
3 9 227
4 5 49
4 7 250
4 10 157
5 7 246
5 10 198
6 8 602
6 10 525
6 11 594
7 8 327
7 11 366
7 12 453
8 9 341
8 10 351
8 11 43
9 11 312
9 12 308
